solution status: optimal solution found
objective value:                                    4
shell_i_$_4__5                                      1 	(obj:0)
shell_i_$_100__5                                    1 	(obj:0)
shell_i_$_22__5                                     1 	(obj:0)
shell_j_$_2__5                                      1 	(obj:0)
shell_j_$_18__5                                     1 	(obj:0)
shell_j_$_5__5                                      1 	(obj:0)
shell_j_thing.thing.chamber[2].thingy.r1c                    1 	(obj:0)
shell_i_$_19__5                                     1 	(obj:0)
shell_i_$_102__5                                    1 	(obj:0)
shell_i_$_125__5                                    1 	(obj:0)
shell_j_$_125__5                                    1 	(obj:0)
shell_j_$_96__5                                     1 	(obj:0)
shell_i_$_12__5                                     1 	(obj:0)
shell_j_thing.thing.chamber[0].thingy.p1                    1 	(obj:0)
shell_j_thing.thing.chamber[1].thingy.p0                    1 	(obj:0)
shell_j_$_3__5                                      1 	(obj:0)
shell_j_$_137__5                                    1 	(obj:0)
shell_i_$_101__5                                    1 	(obj:0)
shell_j_thing.thing.chamber[1].thingy.p2                    1 	(obj:0)
shell_j_$_6__5                                      1 	(obj:0)
shell_i_$_10__5                                     1 	(obj:0)
shell_j_$_11__5                                     1 	(obj:0)
shell_j_thing.thing.chamber[0].thingy.r1c__5                    1 	(obj:0)
shell_j_thing.thing.chamber[1].thingy.r2c__5                    1 	(obj:0)
shell_j_thing.pump2_hole                            1 	(obj:0)
shell_j_$_16__5                                     1 	(obj:0)
shell_j_$_84__5                                     1 	(obj:0)
shell_i_$_123__5                                    1 	(obj:0)
shell_j_$_23__5                                     1 	(obj:0)
shell_j_$_7__5                                      1 	(obj:0)
shell_j_$_20__5                                     1 	(obj:0)
shell_j_$_98__5                                     1 	(obj:0)
shell_j_$_86__5                                     1 	(obj:0)
shell_j_$_17__5                                     1 	(obj:0)
shell_i_thing.thing.chamber[2].thingy.v4__5                    1 	(obj:0)
shell_j_$_148__5                                    1 	(obj:0)
shell_i_$_143__5                                    1 	(obj:0)
shell_j_thing.thing.chamber[2].thingy.p0                    1 	(obj:0)
shell_i_$_88__5                                     1 	(obj:0)
shell_j_$_9__5                                      1 	(obj:0)
shell_j_thing.thing.chamber[1].thingy.r4c__5                    1 	(obj:0)
shell_j_$_21__5                                     1 	(obj:0)
shell_i_thing.pump0_hole                            1 	(obj:0)
shell_i_$_104__5                                    1 	(obj:0)
shell_i_thing.thing.chamber[2].thingy.v10                    1 	(obj:0)
shell_j_thing.thing.chamber[1].thingy.r1c                    1 	(obj:0)
shell_j_$_93__5                                     1 	(obj:0)
shell_i_$_8__5                                      1 	(obj:0)
shell_j_$_26__5                                     1 	(obj:0)
shell_j_$_120__5                                    1 	(obj:0)
shell_j_$_122__5                                    1 	(obj:0)
shell_i_$_115__5                                    1 	(obj:0)
shell_j_$_25__5                                     1 	(obj:0)
shell_i_$_134__5                                    1 	(obj:0)
shell_j_$_147__5                                    1 	(obj:0)
$_102__5_z                                         16 	(obj:0)
$_2__5_y                                           -7 	(obj:0)
thing.thing.chamber[1].thingy.r2c__5_x                   -7 	(obj:0)
thing.thing.chamber[1].thingy.r2c__5_y                   -7 	(obj:0)
thing.thing.chamber[1].thingy.r2c__5_z                   15 	(obj:0)
$_2__5_z                                           25 	(obj:0)
$_125__5_x                                         -7 	(obj:0)
thing.pump2_hole_x                                 -6 	(obj:0)
thing.pump2_hole_y                                 -7 	(obj:0)
thing.pump2_hole_z                                 22 	(obj:0)
$_125__5_y                                         -7 	(obj:0)
$_125__5_z                                         23 	(obj:0)
$_16__5_x                                          -6 	(obj:0)
$_16__5_y                                          -7 	(obj:0)
$_16__5_z                                          25 	(obj:0)
$_100__5_y                                         -1 	(obj:0)
$_100__5_z                                         25 	(obj:0)
$_84__5_x                                          -7 	(obj:0)
$_84__5_y                                          -7 	(obj:0)
$_84__5_z                                          16 	(obj:0)
$_96__5_x                                           3 	(obj:0)
$_96__5_y                                          -7 	(obj:0)
$_123__5_x                                         -7 	(obj:0)
$_123__5_y                                          3 	(obj:0)
$_123__5_z                                         24 	(obj:0)
$_96__5_z                                          15 	(obj:0)
$_18__5_x                                          -1 	(obj:0)
$_23__5_x                                          -5 	(obj:0)
$_23__5_y                                          -7 	(obj:0)
$_23__5_z                                          25 	(obj:0)
$_18__5_y                                          -7 	(obj:0)
$_12__5_x                                          -7 	(obj:0)
$_7__5_x                                           -6 	(obj:0)
$_7__5_y                                           -7 	(obj:0)
$_7__5_z                                           17 	(obj:0)
$_12__5_y                                           3 	(obj:0)
$_12__5_z                                          14 	(obj:0)
$_20__5_x                                          -7 	(obj:0)
$_20__5_y                                          -7 	(obj:0)
$_20__5_z                                          14 	(obj:0)
$_18__5_z                                          15 	(obj:0)
$_4__5_z                                           25 	(obj:0)
$_98__5_x                                          -7 	(obj:0)
$_98__5_y                                          -7 	(obj:0)
$_98__5_z                                          25 	(obj:0)
thing.thing.chamber[0].thingy.p1_x                   -4 	(obj:0)
thing.thing.chamber[0].thingy.p1_y                   -7 	(obj:0)
$_86__5_x                                          -7 	(obj:0)
$_86__5_y                                          -7 	(obj:0)
$_86__5_z                                          24 	(obj:0)
thing.thing.chamber[0].thingy.p1_z                   18 	(obj:0)
$_4__5_x                                           -7 	(obj:0)
$_17__5_x                                           3 	(obj:0)
$_17__5_y                                          -7 	(obj:0)
$_17__5_z                                          10 	(obj:0)
$_5__5_x                                            3 	(obj:0)
thing.thing.chamber[1].thingy.p0_x                   -4 	(obj:0)
thing.thing.chamber[2].thingy.v4__5_x                   -7 	(obj:0)
thing.thing.chamber[2].thingy.v4__5_y                   -5 	(obj:0)
thing.thing.chamber[2].thingy.v4__5_z                   17 	(obj:0)
thing.thing.chamber[1].thingy.p0_y                   -7 	(obj:0)
thing.thing.chamber[1].thingy.p0_z                   20 	(obj:0)
$_148__5_x                                          3 	(obj:0)
$_148__5_y                                         -7 	(obj:0)
$_148__5_z                                         22 	(obj:0)
$_5__5_y                                           -7 	(obj:0)
$_5__5_z                                           14 	(obj:0)
$_143__5_x                                         -7 	(obj:0)
$_143__5_y                                          2 	(obj:0)
$_143__5_z                                         17 	(obj:0)
$_3__5_x                                           -7 	(obj:0)
$_3__5_y                                           -7 	(obj:0)
thing.thing.chamber[2].thingy.p0_x                   -7 	(obj:0)
thing.thing.chamber[2].thingy.p0_y                   -7 	(obj:0)
thing.thing.chamber[2].thingy.p0_z                   20 	(obj:0)
$_3__5_z                                           13 	(obj:0)
$_22__5_x                                          -7 	(obj:0)
$_88__5_x                                          -7 	(obj:0)
$_88__5_y                                          -6 	(obj:0)
$_88__5_z                                          19 	(obj:0)
$_22__5_y                                           3 	(obj:0)
$_137__5_x                                         -3 	(obj:0)
$_9__5_x                                           -7 	(obj:0)
$_9__5_y                                           -7 	(obj:0)
$_9__5_z                                           12 	(obj:0)
$_137__5_y                                         -7 	(obj:0)
$_137__5_z                                         18 	(obj:0)
thing.thing.chamber[1].thingy.r4c__5_x                   -7 	(obj:0)
thing.thing.chamber[1].thingy.r4c__5_y                   -7 	(obj:0)
thing.thing.chamber[1].thingy.r4c__5_z                   17 	(obj:0)
thing.thing.chamber[2].thingy.r1c_x                   -7 	(obj:0)
thing.thing.chamber[2].thingy.r1c_y                   -7 	(obj:0)
$_21__5_x                                          -7 	(obj:0)
$_21__5_y                                          -7 	(obj:0)
$_21__5_z                                          21 	(obj:0)
$_101__5_x                                         -7 	(obj:0)
thing.pump0_hole_x                                 -7 	(obj:0)
thing.pump0_hole_y                                 -6 	(obj:0)
thing.pump0_hole_z                                 20 	(obj:0)
$_101__5_z                                         23 	(obj:0)
thing.thing.chamber[2].thingy.r1c_z                   18 	(obj:0)
$_104__5_x                                         -7 	(obj:0)
$_104__5_y                                         -3 	(obj:0)
$_104__5_z                                         17 	(obj:0)
$_22__5_z                                          22 	(obj:0)
thing.thing.chamber[1].thingy.p2_x                   -7 	(obj:0)
thing.thing.chamber[2].thingy.v10_x                   -7 	(obj:0)
thing.thing.chamber[2].thingy.v10_y                   -5 	(obj:0)
thing.thing.chamber[2].thingy.v10_z                   22 	(obj:0)
thing.thing.chamber[1].thingy.p2_y                   -7 	(obj:0)
thing.thing.chamber[1].thingy.p2_z                   19 	(obj:0)
thing.thing.chamber[1].thingy.r1c_x                   -6 	(obj:0)
thing.thing.chamber[1].thingy.r1c_y                   -7 	(obj:0)
thing.thing.chamber[1].thingy.r1c_z                   19 	(obj:0)
$_4__5_y                                            3 	(obj:0)
$_19__5_x                                          -7 	(obj:0)
$_93__5_x                                          -2 	(obj:0)
$_93__5_y                                          -7 	(obj:0)
$_93__5_z                                          19 	(obj:0)
$_6__5_x                                           -3 	(obj:0)
$_6__5_y                                           -7 	(obj:0)
$_8__5_x                                           -7 	(obj:0)
$_8__5_y                                           -6 	(obj:0)
$_8__5_z                                           25 	(obj:0)
$_6__5_z                                           19 	(obj:0)
$_19__5_y                                           1 	(obj:0)
$_26__5_x                                          -1 	(obj:0)
$_26__5_y                                          -7 	(obj:0)
$_26__5_z                                          12 	(obj:0)
$_19__5_z                                          25 	(obj:0)
$_10__5_x                                          -7 	(obj:0)
$_120__5_x                                         -3 	(obj:0)
$_120__5_y                                         -7 	(obj:0)
$_120__5_z                                         24 	(obj:0)
$_10__5_y                                          -3 	(obj:0)
$_10__5_z                                          24 	(obj:0)
$_122__5_x                                          3 	(obj:0)
$_122__5_y                                         -7 	(obj:0)
$_122__5_z                                         12 	(obj:0)
$_100__5_x                                         -7 	(obj:0)
$_2__5_x                                            3 	(obj:0)
$_115__5_x                                         -7 	(obj:0)
$_115__5_y                                         -4 	(obj:0)
$_115__5_z                                         20 	(obj:0)
$_11__5_x                                          -3 	(obj:0)
$_11__5_y                                          -7 	(obj:0)
$_25__5_x                                          -6 	(obj:0)
$_25__5_y                                          -7 	(obj:0)
$_25__5_z                                          16 	(obj:0)
$_11__5_z                                          25 	(obj:0)
$_102__5_x                                         -7 	(obj:0)
$_134__5_x                                         -7 	(obj:0)
$_134__5_y                                         -5 	(obj:0)
$_134__5_z                                         20 	(obj:0)
$_102__5_y                                         -1 	(obj:0)
thing.thing.chamber[0].thingy.r1c__5_x                   -7 	(obj:0)
$_147__5_x                                          3 	(obj:0)
$_147__5_y                                         -7 	(obj:0)
$_147__5_z                                         23 	(obj:0)
thing.thing.chamber[0].thingy.r1c__5_y                   -7 	(obj:0)
thing.thing.chamber[0].thingy.r1c__5_z                   22 	(obj:0)
x333                                                1 	(obj:1)
x413                                                2 	(obj:1)
x420                                                1 	(obj:1)
